(set-logic HORN)
(set-info :source |
    Benchmark: C_VC
    Output by Princess (http://www.philipp.ruemmer.org/princess.shtml)
|)
(set-info :status unknown)
(declare-fun inv_main10 (Int Int Int Int Int Int Int Int Int Int) Bool)
(declare-fun inv_main30 (Int Int Int Int Int Int Int Int Int Int) Bool)
(declare-fun inv_main31 (Int Int Int Int Int Int Int Int Int Int) Bool)
(assert (forall ((var0 Int)) (forall ((var1 Int)) (forall ((var2 Int)) (forall ((var3 Int)) (forall ((var4 Int)) (forall ((var5 Int)) (forall ((var6 Int)) (forall ((var7 Int)) (inv_main10 0 0 var5 var1 var4 var7 var6 var3 var0 var2 ) ) ) ) ) ) ) ) ) )
(assert (forall ((var0 Int)) (forall ((var1 Int)) (forall ((var2 Int)) (forall ((var3 Int)) (forall ((var4 Int)) (forall ((var5 Int)) (forall ((var6 Int)) (forall ((var7 Int)) (forall ((var8 Int)) (forall ((var9 Int)) (or (not (inv_main30 var4 var5 var9 var6 var3 var2 var0 var8 var1 var7 ) ) (inv_main31 var4 var5 var9 var6 var3 var2 var0 var8 var1 var7 ) ) ) ) ) ) ) ) ) ) ) ) )
(assert (forall ((var0 Int)) (forall ((var1 Int)) (forall ((var2 Int)) (forall ((var3 Int)) (forall ((var4 Int)) (forall ((var5 Int)) (forall ((var6 Int)) (forall ((var7 Int)) (forall ((var8 Int)) (forall ((var9 Int)) (or (not (and (inv_main10 var4 var5 var9 var6 var3 var2 var0 var8 var1 var7 ) (and (not (<= 0 (* (- 1) (+ (+ var5 1 ) (- 1) ) ) ) ) (<= 0 (+ var5 (- 1) ) ) ) ) ) (inv_main30 var4 var5 0 0 (+ (+ var5 1 ) (- 1) ) 0 0 (+ (+ var5 1 ) (- 1) ) 0 1 ) ) ) ) ) ) ) ) ) ) ) ) )
(assert (forall ((var0 Int)) (forall ((var1 Int)) (forall ((var2 Int)) (forall ((var3 Int)) (forall ((var4 Int)) (forall ((var5 Int)) (forall ((var6 Int)) (forall ((var7 Int)) (forall ((var8 Int)) (forall ((var9 Int)) (or (not (and (inv_main31 var4 var5 var9 var6 var3 var2 var0 var8 var1 var7 ) (and (not (<= 0 (+ (+ var0 var7 ) (* (- 1) var8 ) ) ) ) (= var4 0 ) ) ) ) (inv_main30 var4 var5 var9 var6 var3 var2 var0 var8 var1 (+ var7 1 ) ) ) ) ) ) ) ) ) ) ) ) ) )
(assert (forall ((var0 Int)) (forall ((var1 Int)) (forall ((var2 Int)) (forall ((var3 Int)) (forall ((var4 Int)) (forall ((var5 Int)) (forall ((var6 Int)) (forall ((var7 Int)) (forall ((var8 Int)) (forall ((var9 Int)) (not (and (inv_main30 var4 var5 var9 var6 var3 var2 var0 var8 var1 var7 ) (not (<= 0 var7 ) ) ) ) ) ) ) ) ) ) ) ) ) ) )
(assert (forall ((var0 Int)) (forall ((var1 Int)) (forall ((var2 Int)) (forall ((var3 Int)) (forall ((var4 Int)) (forall ((var5 Int)) (forall ((var6 Int)) (forall ((var7 Int)) (forall ((var8 Int)) (forall ((var9 Int)) (not (and (inv_main31 var4 var5 var9 var6 var3 var2 var0 var8 var1 var7 ) (not (<= 0 (+ (+ (+ var5 1 ) (* (- 1) var7 ) ) (- 1) ) ) ) ) ) ) ) ) ) ) ) ) ) ) ) )
(check-sat)
